============================[ Problem Statistics ]=============================|                                                                             ||  Number of variables:          4242                                         ||  Number of clauses:           10392                                         ||  Parse time:                   0.77 s                                       ||                                                                             |============================[ Search Statistics ]==============================| Conflicts |          ORIGINAL         |          LEARNT          | Progress ||           |    Vars  Clauses Literals |    Limit  Clauses Lit/Cl |          |===============================================================================|       100 |    1591     6597  1243228 |     2418      100     53 | 62.501 % ||       250 |    1591     6597  1243228 |     2660      250     75 | 62.495 % |===============================================================================restarts              : 4conflicts             : 421            (360 /sec)decisions             : 781            (0.00 % random) (667 /sec)propagations          : 13686          (11687 /sec)conflict literals     : 35261          (94.51 % deleted)CPU time              : 1.171 sSATISFIABLE